TOUR_SECTION
1
177
196
178
63
86
153
91
49
189
143
98
155
151
128
54
39
22
70
14
130
154
74
132
94
159
123
84
58
56
76
37
42
158
185
101
187
51
121
13
21
64
194
17
122
124
109
79
126
173
141
29
110
119
169
35
30
165
5
45
15
78
117
162
127
27
65
102
18
137
28
138
148
26
171
136
186
114
135
166
11
115
199
23
47
60
134
36
112
46
41
10
53
34
142
157
167
89
31
175
181
25
8
192
20
113
40
68
100
193
174
191
195
107
163
77
83
180
99
66
104
88
82
183
164
200
198
67
168
120
16
95
12
48
73
72
201
92
33
32
190
2
129
3
139
188
81
140
176
90
38
172
96
87
6
111
44
116
106
133
146
197
160
105
103
184
24
19
75
161
170
93
80
125
97
182
85
55
108
43
149
152
118
57
62
50
52
59
61
4
71
147
69
131
150
145
144
179
7
156
9
-1
EOF